************************************************************************
file with basedata            : mm51_.bas
initial value random generator: 958971301
************************************************************************
projects                      :  1
jobs (incl. supersource/sink ):  12
horizon                       :  76
RESOURCES
  - renewable                 :  2   R
  - nonrenewable              :  2   N
  - doubly constrained        :  0   D
************************************************************************
PROJECT INFORMATION:
pronr.  #jobs rel.date duedate tardcost  MPM-Time
    1     10      0       12        8       12
************************************************************************
PRECEDENCE RELATIONS:
jobnr.    #modes  #successors   successors
   1        1          3           2   3   4
   2        3          2           9  11
   3        3          3           5   6   7
   4        3          2           8  10
   5        3          1          10
   6        3          1          11
   7        3          1          10
   8        3          2           9  11
   9        3          1          12
  10        3          1          12
  11        3          1          12
  12        1          0        
************************************************************************
REQUESTS/DURATIONS:
jobnr. mode duration  R 1  R 2  N 1  N 2
------------------------------------------------------------------------
  1      1     0       0    0    0    0
  2      1     1       6    4    0    6
         2     5       6    4    0    5
         3     8       5    3    3    0
  3      1     1       7    4    9    0
         2     1       7    4    0    3
         3     9       7    3    9    0
  4      1     1      10   10    0    6
         2     6       8    9    7    0
         3     7       3    8    0    5
  5      1     1       7    6    8    0
         2     5       5    6    5    0
         3     5       4    6    0    8
  6      1     4       6    7    0    5
         2     9       6    7    0    1
         3     9       4    6    0    3
  7      1     1       7    8    0    5
         2     5       7    7    0    2
         3     7       6    7    0    2
  8      1     5      10    9    4    0
         2     8       7    5    0    3
         3     8       4    7    0    3
  9      1     6       4    6    0    7
         2     9       3    1    2    0
         3     9       3    4    0    6
 10      1     3       7    5    0    8
         2     4       5    4    0    3
         3     6       5    2    5    0
 11      1     2       9    4    0    6
         2     3       8    3    0    2
         3     8       7    3    8    0
 12      1     0       0    0    0    0
************************************************************************
RESOURCEAVAILABILITIES:
  R 1  R 2  N 1  N 2
   23   23   32   41
************************************************************************
MAXIMAL LAGS:
from  to  type  delay
    1   12   ES      0
    1    2   ES      0
    2   12   ES      0
    1    3   ES      0
    3   12   ES      0
    1    4   ES      0
    4   12   ES      0
    1    5   ES      0
    5   12   ES      0
    1    6   ES      0
    6   12   ES      0
    1    7   ES      0
    7   12   ES      0
    1    8   ES      0
    8   12   ES      0
    1    9   ES      0
    9   12   ES      0
    1   10   ES      0
   10   12   ES      0
    1   11   ES      0
   11   12   ES      0
    1   12   ES      0
    2    9   SS      5
    2    9   SE     -7
    2    9   ES      4
    2    9   EE    -10
    2   11   SS      6
    2   11   SE      2
    2   11   ES      7
    2   11   EE      8
    3    5   SS     -6
    3    5   SE     12
    3    5   ES    -10
    3    5   EE     12
    3    6   SS      9
    3    6   SE      1
    3    6   ES     -4
    3    6   EE      2
    3    7   SS      2
    3    7   SE     11
    3    7   ES     -8
    3    7   EE      8
    4    8   SS     -2
    4    8   SE    -10
    4    8   ES     -7
    4    8   EE      8
    4   10   SS      6
    4   10   SE     -2
    4   10   ES      2
    4   10   EE      4
    5   10   SS     12
    5   10   SE     10
    5   10   ES     11
    5   10   EE      1
    6   11   SS    -12
    6   11   SE      0
    6   11   ES      6
    6   11   EE     -3
    7   10   SS    -12
    7   10   SE      7
   10    7   SE      0
    7   10   ES      0
    7   10   EE    -12
    8    9   SS    -12
    8    9   SE     -5
    8    9   ES     -2
    8    9   EE      1
    8   11   SS     -8
    8   11   SE     -4
    8   11   ES     -5
    8   11   EE      6
************************************************************************
